100 8777
868	721	1085	1093	1039	635	180	651	561	508	522	256	522	1004	508	1098	1050	593	515	769	792	506	1068	226	449	678	861	905	1057	650	789	907	674	1001	185	697	646	829	375	504	834	684	576	478	257	919	383	1055	1057	932	809	333	439	923	408	1022	850	701	808	367	430	248	876	631	544	679	1046	902	561	1062	778	812	329	500	869	566	481	1049	119	714	444	679	362	1092	1043	532	518	682	460	773	1083	1010	902	935	642	307	1084	519	697	328
768	621	985	993	939	535	80	551	461	408	422	156	422	904	408	998	950	493	415	669	692	406	968	126	349	578	761	805	957	550	689	807	574	901	85	597	546	729	275	404	734	584	476	378	157	819	283	955	957	832	709	233	339	823	308	922	750	601	708	267	330	148	776	531	444	579	946	802	461	962	678	712	229	400	769	466	381	949	19	614	344	579	262	992	943	432	418	582	360	673	983	910	802	835	542	207	984	419	597	228

